row=10;
column=10;
Board=[|4,0,0,0,0,0,0,0,1,0|0,0,0,0,0,0,0,0,0,0|0,0,0,0,0,0,0,1,0,0|0,0,0,0,0,0,0,0,0,0|0,0,0,0,0,0,0,0,0,0|0,0,0,0,0,0,0,0,0,0|0,0,0,0,0,0,0,0,0,0|0,0,0,5,0,0,0,0,0,0|0,0,0,0,0,0,0,0,0,0|0,0,0,0,0,0,6,0,0,0|];
right = [5,0,1,0,3,2,0,5,0,4];
bottom = [3,2,1,1,0,4,2,3,2,2];
